# Objective value = 239
S_0 0
S_1 1
S_2 0
S_3 1
S_4 0
S_5 0
S_6 0
S_7 0
S_8 0
S_9 0
S_10 0
S_11 0
S_12 0
S_13 0
S_14 0
S_15 0
S_16 0
S_17 0
S_18 0
S_19 0
S_20 0
S_21 0
S_22 0
S_23 0
S_24 0
S_25 0
S_26 0
S_27 0
S_28 0
S_29 0
S_30 0
S_31 0
S_32 0
S_33 0
S_34 0
S_35 0
S_36 0
S_37 0
S_38 0
S_39 0
S_40 0
S_41 0
S_42 0
S_43 0
S_44 0
S_45 0
y_0_0_1 0
w_0_0 0
w_0_1 0
y_1_0_1 0
y_1_0_2 0
y_1_1_2 0
w_1_0 0
w_1_1 0
w_1_2 0
y_2_0_1 0
y_2_0_2 0
y_2_1_2 0
w_2_0 0
w_2_1 0
w_2_2 0
y_3_0_1 0
y_3_0_2 0
y_3_0_3 0
y_3_1_2 0
y_3_1_3 0
y_3_2_3 0
w_3_0 0
w_3_1 0
w_3_2 0
w_3_3 0
y_4_0_1 0
y_4_0_2 0
y_4_0_3 0
y_4_1_2 0
y_4_1_3 0
y_4_2_3 0
w_4_0 0
w_4_1 0
w_4_2 0
w_4_3 0
y_5_0_1 0
y_5_0_2 0
y_5_0_3 0
y_5_1_2 0
y_5_1_3 0
y_5_2_3 0
w_5_0 0
w_5_1 0
w_5_2 0
w_5_3 1
y_6_0_1 0
y_6_0_2 0
y_6_0_3 0
y_6_1_2 0
y_6_1_3 0
y_6_2_3 0
w_6_0 0
w_6_1 0
w_6_2 0
w_6_3 1
y_7_0_1 0
y_7_0_2 0
y_7_0_3 0
y_7_1_2 0
y_7_1_3 0
y_7_2_3 0
w_7_0 0
w_7_1 0
w_7_2 0
w_7_3 1
y_8_1_2 0
y_8_1_3 1
y_8_2_3 0
w_8_1 0
w_8_2 0
w_8_3 3
y_9_1_2 0
y_9_1_3 0
y_9_1_9 0
y_9_2_3 0
y_9_2_9 0
y_9_3_9 0
w_9_1 0
w_9_2 0
w_9_3 0
w_9_9 0
y_10_1_2 0
y_10_1_3 0
y_10_1_9 0
y_10_1_10 0
y_10_2_3 0
y_10_2_9 0
y_10_2_10 0
y_10_3_9 0
y_10_3_10 0
y_10_9_10 0
w_10_1 0
w_10_2 0
w_10_3 0
w_10_9 0
w_10_10 0
y_11_1_2 0
y_11_1_3 0
y_11_1_9 0
y_11_1_10 1
y_11_1_11 0
y_11_1_12 0
y_11_2_3 0
y_11_2_9 0
y_11_2_10 0
y_11_2_11 0
y_11_2_12 0
y_11_3_9 0
y_11_3_10 0
y_11_3_11 0
y_11_3_12 0
y_11_9_10 0
y_11_9_11 0
y_11_9_12 0
y_11_10_11 0
y_11_10_12 0
y_11_11_12 0
w_11_1 0
w_11_2 1
w_11_3 1
w_11_9 0
w_11_10 2
w_11_11 0
w_11_12 1
y_12_1_2 0
y_12_1_3 0
y_12_1_9 0
y_12_1_10 0
y_12_1_11 0
y_12_1_12 0
y_12_1_14 0
y_12_2_3 0
y_12_2_9 0
y_12_2_10 0
y_12_2_11 0
y_12_2_12 0
y_12_2_14 0
y_12_3_9 0
y_12_3_10 0
y_12_3_11 0
y_12_3_12 0
y_12_3_14 0
y_12_9_10 0
y_12_9_11 0
y_12_9_12 0
y_12_9_14 0
y_12_10_11 0
y_12_10_12 0
y_12_10_14 0
y_12_11_12 0
y_12_11_14 0
y_12_12_14 0
w_12_1 0
w_12_2 0
w_12_3 0
w_12_9 0
w_12_10 0
w_12_11 0
w_12_12 0
w_12_14 0
y_13_1_2 0
y_13_1_3 0
y_13_1_9 0
y_13_1_10 0
y_13_1_11 0
y_13_1_14 0
y_13_1_15 0
y_13_2_3 0
y_13_2_9 0
y_13_2_10 0
y_13_2_11 0
y_13_2_14 0
y_13_2_15 0
y_13_3_9 0
y_13_3_10 0
y_13_3_11 0
y_13_3_14 0
y_13_3_15 0
y_13_9_10 0
y_13_9_11 0
y_13_9_14 0
y_13_9_15 0
y_13_10_11 0
y_13_10_14 0
y_13_10_15 0
y_13_11_14 0
y_13_11_15 0
y_13_14_15 0
w_13_1 0
w_13_2 0
w_13_3 0
w_13_9 0
w_13_10 0
w_13_11 0
w_13_14 0
w_13_15 0
y_14_1_2 0
y_14_1_3 0
y_14_1_9 0
y_14_1_11 0
y_14_1_15 0
y_14_2_3 0
y_14_2_9 0
y_14_2_11 0
y_14_2_15 0
y_14_3_9 0
y_14_3_11 0
y_14_3_15 0
y_14_9_11 0
y_14_9_15 0
y_14_11_15 0
w_14_1 1
w_14_2 2
w_14_3 2
w_14_9 0
w_14_11 0
w_14_15 0
y_15_1_2 0
y_15_1_3 0
y_15_1_9 0
y_15_1_11 0
y_15_1_15 0
y_15_2_3 0
y_15_2_9 0
y_15_2_11 0
y_15_2_15 0
y_15_3_9 0
y_15_3_11 0
y_15_3_15 0
y_15_9_11 0
y_15_9_15 0
y_15_11_15 0
w_15_1 0
w_15_2 0
w_15_3 0
w_15_9 0
w_15_11 0
w_15_15 0
y_16_1_2 0
y_16_1_3 0
y_16_1_9 0
y_16_2_3 0
y_16_2_9 0
y_16_3_9 0
w_16_1 0
w_16_2 0
w_16_3 0
w_16_9 1
y_17_1_2 0
y_17_1_3 0
y_17_1_9 0
y_17_2_3 0
y_17_2_9 0
y_17_3_9 0
w_17_1 1
w_17_2 1
w_17_3 1
w_17_9 0
y_18_1_2 0
y_18_1_3 0
y_18_2_3 0
w_18_1 0
w_18_2 0
w_18_3 0
y_19_1_2 0
y_19_1_3 0
y_19_1_18 0
y_19_1_19 0
y_19_2_3 0
y_19_2_18 0
y_19_2_19 0
y_19_3_18 0
y_19_3_19 0
y_19_18_19 0
w_19_1 0
w_19_2 0
w_19_3 0
w_19_18 0
w_19_19 0
y_20_1_2 0
y_20_1_3 1
y_20_1_18 0
y_20_1_19 0
y_20_2_3 0
y_20_2_18 0
y_20_2_19 0
y_20_3_18 0
y_20_3_19 0
y_20_18_19 0
w_20_1 1
w_20_2 0
w_20_3 1
w_20_18 0
w_20_19 0
y_21_1_2 0
y_21_1_3 0
y_21_1_18 0
y_21_1_19 0
y_21_1_20 0
y_21_2_3 0
y_21_2_18 0
y_21_2_19 0
y_21_2_20 0
y_21_3_18 0
y_21_3_19 0
y_21_3_20 0
y_21_18_19 0
y_21_18_20 0
y_21_19_20 0
w_21_1 1
w_21_2 1
w_21_3 1
w_21_18 1
w_21_19 0
w_21_20 0
y_22_1_2 0
y_22_1_3 0
y_22_1_18 0
y_22_1_19 0
y_22_1_20 0
y_22_1_21 0
y_22_2_3 0
y_22_2_18 0
y_22_2_19 0
y_22_2_20 0
y_22_2_21 0
y_22_3_18 0
y_22_3_19 0
y_22_3_20 0
y_22_3_21 0
y_22_18_19 0
y_22_18_20 0
y_22_18_21 0
y_22_19_20 0
y_22_19_21 0
y_22_20_21 0
w_22_1 0
w_22_2 0
w_22_3 0
w_22_18 0
w_22_19 0
w_22_20 2
w_22_21 0
y_23_1_2 0
y_23_1_3 0
y_23_1_18 0
y_23_1_19 0
y_23_1_20 0
y_23_1_21 0
y_23_2_3 0
y_23_2_18 0
y_23_2_19 0
y_23_2_20 0
y_23_2_21 0
y_23_3_18 0
y_23_3_19 0
y_23_3_20 0
y_23_3_21 0
y_23_18_19 0
y_23_18_20 0
y_23_18_21 0
y_23_19_20 0
y_23_19_21 0
y_23_20_21 0
w_23_1 0
w_23_2 0
w_23_3 0
w_23_18 0
w_23_19 0
w_23_20 2
w_23_21 0
y_24_1_2 0
y_24_1_3 0
y_24_1_18 0
y_24_1_19 0
y_24_1_20 0
y_24_2_3 0
y_24_2_18 0
y_24_2_19 0
y_24_2_20 0
y_24_3_18 0
y_24_3_19 0
y_24_3_20 0
y_24_18_19 0
y_24_18_20 0
y_24_19_20 0
w_24_1 1
w_24_2 1
w_24_3 1
w_24_18 1
w_24_19 0
w_24_20 1
y_25_1_2 0
y_25_1_3 0
y_25_1_18 0
y_25_1_19 0
y_25_1_20 0
y_25_1_24 0
y_25_1_25 0
y_25_2_3 0
y_25_2_18 0
y_25_2_19 0
y_25_2_20 0
y_25_2_24 0
y_25_2_25 0
y_25_3_18 0
y_25_3_19 0
y_25_3_20 0
y_25_3_24 0
y_25_3_25 0
y_25_18_19 0
y_25_18_20 0
y_25_18_24 0
y_25_18_25 0
y_25_19_20 0
y_25_19_24 0
y_25_19_25 0
y_25_20_24 0
y_25_20_25 0
y_25_24_25 0
w_25_1 0
w_25_2 0
w_25_3 0
w_25_18 0
w_25_19 0
w_25_20 4
w_25_24 0
w_25_25 0
y_26_1_2 0
y_26_1_3 0
y_26_1_18 0
y_26_1_19 0
y_26_1_20 0
y_26_1_25 0
y_26_1_30 0
y_26_1_31 0
y_26_2_3 0
y_26_2_18 0
y_26_2_19 0
y_26_2_20 0
y_26_2_25 0
y_26_2_30 0
y_26_2_31 0
y_26_3_18 0
y_26_3_19 0
y_26_3_20 0
y_26_3_25 0
y_26_3_30 0
y_26_3_31 0
y_26_18_19 0
y_26_18_20 0
y_26_18_25 0
y_26_18_30 0
y_26_18_31 0
y_26_19_20 0
y_26_19_25 0
y_26_19_30 0
y_26_19_31 0
y_26_20_25 0
y_26_20_30 0
y_26_20_31 0
y_26_25_30 0
y_26_25_31 0
y_26_30_31 0
w_26_1 0
w_26_2 0
w_26_3 0
w_26_18 0
w_26_19 0
w_26_20 4
w_26_25 0
w_26_30 0
w_26_31 1
y_27_1_2 0
y_27_1_3 0
y_27_1_18 0
y_27_1_19 0
y_27_1_20 0
y_27_1_30 0
y_27_2_3 0
y_27_2_18 0
y_27_2_19 0
y_27_2_20 0
y_27_2_30 0
y_27_3_18 0
y_27_3_19 0
y_27_3_20 0
y_27_3_30 0
y_27_18_19 0
y_27_18_20 0
y_27_18_30 0
y_27_19_20 0
y_27_19_30 0
y_27_20_30 0
w_27_1 1
w_27_2 1
w_27_3 1
w_27_18 1
w_27_19 0
w_27_20 0
w_27_30 0
y_28_1_2 0
y_28_1_3 0
y_28_1_18 0
y_28_1_19 0
y_28_1_20 0
y_28_1_30 0
y_28_1_32 0
y_28_2_3 0
y_28_2_18 0
y_28_2_19 0
y_28_2_20 0
y_28_2_30 0
y_28_2_32 0
y_28_3_18 0
y_28_3_19 0
y_28_3_20 0
y_28_3_30 0
y_28_3_32 0
y_28_18_19 0
y_28_18_20 0
y_28_18_30 0
y_28_18_32 0
y_28_19_20 0
y_28_19_30 0
y_28_19_32 0
y_28_20_30 0
y_28_20_32 0
y_28_30_32 0
w_28_1 0
w_28_2 0
w_28_3 0
w_28_18 0
w_28_19 0
w_28_20 0
w_28_30 0
w_28_32 0
y_29_1_2 0
y_29_1_3 0
y_29_1_18 0
y_29_1_19 0
y_29_1_20 0
y_29_1_30 0
y_29_1_32 0
y_29_2_3 0
y_29_2_18 0
y_29_2_19 0
y_29_2_20 0
y_29_2_30 0
y_29_2_32 0
y_29_3_18 0
y_29_3_19 0
y_29_3_20 0
y_29_3_30 0
y_29_3_32 0
y_29_18_19 0
y_29_18_20 0
y_29_18_30 0
y_29_18_32 0
y_29_19_20 0
y_29_19_30 0
y_29_19_32 0
y_29_20_30 0
y_29_20_32 0
y_29_30_32 0
w_29_1 0
w_29_2 0
w_29_3 0
w_29_18 0
w_29_19 0
w_29_20 0
w_29_30 0
w_29_32 0
y_30_1_2 0
y_30_1_3 0
y_30_1_18 0
y_30_1_19 0
y_30_1_20 0
y_30_1_30 0
y_30_2_3 0
y_30_2_18 0
y_30_2_19 0
y_30_2_20 0
y_30_2_30 0
y_30_3_18 0
y_30_3_19 0
y_30_3_20 0
y_30_3_30 0
y_30_18_19 0
y_30_18_20 0
y_30_18_30 0
y_30_19_20 0
y_30_19_30 0
y_30_20_30 0
w_30_1 0
w_30_2 0
w_30_3 0
w_30_18 0
w_30_19 0
w_30_20 1
w_30_30 0
y_31_1_2 0
y_31_1_3 0
y_31_1_18 0
y_31_1_19 0
y_31_1_30 0
y_31_2_3 0
y_31_2_18 0
y_31_2_19 0
y_31_2_30 0
y_31_3_18 0
y_31_3_19 0
y_31_3_30 0
y_31_18_19 0
y_31_18_30 0
y_31_19_30 0
w_31_1 0
w_31_2 0
w_31_3 0
w_31_18 0
w_31_19 0
w_31_30 0
y_32_1_2 0
y_32_1_3 0
y_32_1_18 0
y_32_1_19 0
y_32_2_3 0
y_32_2_18 0
y_32_2_19 0
y_32_3_18 0
y_32_3_19 0
y_32_18_19 0
w_32_1 0
w_32_2 0
w_32_3 0
w_32_18 0
w_32_19 1
y_33_1_2 0
y_33_1_3 0
y_33_2_3 0
w_33_1 0
w_33_2 0
w_33_3 0
y_34_1_2 0
y_34_1_3 0
y_34_2_3 0
w_34_1 0
w_34_2 0
w_34_3 0
y_35_1_2 0
y_35_1_3 0
y_35_2_3 0
w_35_1 0
w_35_2 3
w_35_3 0
y_36_1_2 0
y_36_1_3 0
y_36_1_36 0
y_36_2_3 0
y_36_2_36 0
y_36_3_36 0
w_36_1 0
w_36_2 0
w_36_3 0
w_36_36 0
y_37_1_2 0
y_37_1_3 0
y_37_1_36 0
y_37_2_3 0
y_37_2_36 0
y_37_3_36 0
w_37_1 0
w_37_2 2
w_37_3 0
w_37_36 0
y_38_1_2 0
y_38_1_3 0
y_38_2_3 0
w_38_1 0
w_38_2 1
w_38_3 0
y_39_1_2 1
y_39_1_3 0
y_39_2_3 0
w_39_1 1
w_39_2 1
w_39_3 0
y_40_1_2 0
y_40_1_3 0
y_40_2_3 1
w_40_1 0
w_40_2 1
w_40_3 1
y_41_1_2 0
y_41_1_3 0
y_41_2_3 0
w_41_1 0
w_41_2 0
w_41_3 0
y_42_1_2 0
y_42_1_3 0
y_42_2_3 0
w_42_1 0
w_42_2 0
w_42_3 0
y_43_1_2 0
w_43_1 1
w_43_2 0
y_44_1_2 0
w_44_1 0
w_44_2 0
y_45_1_44 0
w_45_1 0
w_45_44 0
w_46_1 0
x_0_0_1 1
x_1_0_1 1
x_2_0_1 1
x_1_0_2 0
x_2_0_2 0
x_1_1_2 0
x_2_1_2 0
x_3_0_1 1
x_3_0_2 0
x_3_1_2 0
x_4_0_1 1
x_4_0_2 0
x_3_0_3 1
x_4_0_3 1
x_4_1_2 0
x_3_1_3 1
x_4_1_3 1
x_3_2_3 1
x_4_2_3 1
x_5_0_1 1
x_5_0_2 0
x_5_0_3 1
x_5_1_2 0
x_5_1_3 1
x_5_2_3 1
x_6_0_1 1
x_6_0_2 0
x_6_0_3 1
x_6_1_2 0
x_6_1_3 1
x_6_2_3 1
x_7_0_1 1
x_7_0_2 0
x_7_0_3 1
x_7_1_2 0
x_7_1_3 1
x_7_2_3 1
x_8_0_1 1
x_8_0_2 0
x_8_0_3 1
x_8_1_2 0
x_8_1_3 1
x_8_2_3 1
x_9_1_2 0
x_9_1_3 0
x_9_2_3 1
x_10_1_2 0
x_10_1_3 0
x_9_1_9 1
x_10_1_9 1
x_10_2_3 1
x_9_2_9 1
x_10_2_9 1
x_9_3_9 1
x_10_3_9 1
x_11_1_2 0
x_11_1_3 0
x_11_1_9 1
x_10_1_10 1
x_11_1_10 1
x_11_2_3 1
x_11_2_9 1
x_10_2_10 1
x_11_2_10 1
x_11_3_9 1
x_10_3_10 1
x_11_3_10 1
x_10_9_10 0
x_11_9_10 0
x_12_1_2 0
x_12_1_3 0
x_12_1_9 1
x_12_1_10 0
x_11_1_11 1
x_12_1_11 1
x_11_1_12 1
x_12_1_12 1
x_12_2_3 1
x_12_2_9 1
x_12_2_10 1
x_11_2_11 1
x_12_2_11 1
x_11_2_12 1
x_12_2_12 1
x_12_3_9 1
x_12_3_10 1
x_11_3_11 1
x_12_3_11 1
x_11_3_12 1
x_12_3_12 1
x_12_9_10 0
x_11_9_11 1
x_12_9_11 1
x_11_9_12 1
x_12_9_12 1
x_11_10_11 1
x_12_10_11 1
x_11_10_12 1
x_12_10_12 1
x_11_11_12 1
x_12_11_12 1
x_13_1_2 0
x_13_1_3 0
x_13_1_9 1
x_13_1_10 0
x_13_1_11 1
x_13_1_12 1
x_12_1_14 1
x_13_1_14 1
x_13_2_3 1
x_13_2_9 1
x_13_2_10 1
x_13_2_11 1
x_13_2_12 1
x_12_2_14 1
x_13_2_14 1
x_13_3_9 1
x_13_3_10 1
x_13_3_11 1
x_13_3_12 1
x_12_3_14 1
x_13_3_14 1
x_13_9_10 0
x_13_9_11 1
x_13_9_12 1
x_12_9_14 0
x_13_9_14 0
x_13_10_11 1
x_13_10_12 1
x_12_10_14 1
x_13_10_14 1
x_13_11_12 1
x_12_11_14 0
x_13_11_14 0
x_12_12_14 0
x_13_12_14 0
x_14_1_2 0
x_14_1_3 0
x_14_1_9 1
x_14_1_10 0
x_14_1_11 1
x_14_1_14 1
x_13_1_15 1
x_14_1_15 1
x_14_2_3 1
x_14_2_9 1
x_14_2_10 1
x_14_2_11 1
x_14_2_14 1
x_13_2_15 1
x_14_2_15 1
x_14_3_9 1
x_14_3_10 1
x_14_3_11 1
x_14_3_14 1
x_13_3_15 1
x_14_3_15 1
x_14_9_10 0
x_14_9_11 1
x_14_9_14 0
x_13_9_15 1
x_14_9_15 1
x_14_10_11 1
x_14_10_14 1
x_13_10_15 1
x_14_10_15 1
x_14_11_14 0
x_13_11_15 1
x_14_11_15 1
x_13_14_15 1
x_14_14_15 1
x_15_1_2 0
x_15_1_3 0
x_15_1_9 1
x_15_1_11 1
x_15_1_15 1
x_15_2_3 1
x_15_2_9 1
x_15_2_11 1
x_15_2_15 1
x_15_3_9 1
x_15_3_11 1
x_15_3_15 1
x_15_9_11 1
x_15_9_15 1
x_15_11_15 1
x_16_1_2 0
x_16_1_3 0
x_16_1_9 1
x_16_1_11 1
x_16_1_15 1
x_16_2_3 1
x_16_2_9 1
x_16_2_11 1
x_16_2_15 1
x_16_3_9 1
x_16_3_11 1
x_16_3_15 1
x_16_9_11 1
x_16_9_15 1
x_16_11_15 1
x_17_1_2 0
x_17_1_3 0
x_17_1_9 1
x_17_2_3 1
x_17_2_9 1
x_17_3_9 1
x_18_1_2 0
x_18_1_3 0
x_18_1_9 1
x_18_2_3 1
x_18_2_9 1
x_18_3_9 1
x_19_1_2 0
x_19_1_3 0
x_19_2_3 1
x_20_1_2 0
x_20_1_3 0
x_19_1_18 1
x_20_1_18 1
x_19_1_19 1
x_20_1_19 1
x_20_2_3 1
x_19_2_18 1
x_20_2_18 1
x_19_2_19 1
x_20_2_19 1
x_19_3_18 1
x_20_3_18 1
x_19_3_19 1
x_20_3_19 1
x_19_18_19 1
x_20_18_19 1
x_21_1_2 0
x_21_1_3 1
x_21_1_18 1
x_21_1_19 1
x_21_2_3 1
x_21_2_18 1
x_21_2_19 1
x_21_3_18 1
x_21_3_19 1
x_21_18_19 1
x_22_1_2 0
x_22_1_3 1
x_22_1_18 1
x_22_1_19 1
x_21_1_20 1
x_22_1_20 1
x_22_2_3 1
x_22_2_18 1
x_22_2_19 1
x_21_2_20 1
x_22_2_20 1
x_22_3_18 1
x_22_3_19 1
x_21_3_20 1
x_22_3_20 1
x_22_18_19 1
x_21_18_20 1
x_22_18_20 1
x_21_19_20 1
x_22_19_20 1
x_23_1_2 0
x_23_1_3 1
x_23_1_18 1
x_23_1_19 1
x_23_1_20 1
x_22_1_21 1
x_23_1_21 1
x_23_2_3 1
x_23_2_18 1
x_23_2_19 1
x_23_2_20 1
x_22_2_21 1
x_23_2_21 1
x_23_3_18 1
x_23_3_19 1
x_23_3_20 1
x_22_3_21 1
x_23_3_21 1
x_23_18_19 1
x_23_18_20 1
x_22_18_21 1
x_23_18_21 1
x_23_19_20 1
x_22_19_21 0
x_23_19_21 0
x_22_20_21 0
x_23_20_21 0
x_24_1_2 0
x_24_1_3 1
x_24_1_18 1
x_24_1_19 1
x_24_1_20 1
x_24_1_21 1
x_24_2_3 1
x_24_2_18 1
x_24_2_19 1
x_24_2_20 1
x_24_2_21 1
x_24_3_18 1
x_24_3_19 1
x_24_3_20 1
x_24_3_21 1
x_24_18_19 1
x_24_18_20 1
x_24_18_21 1
x_24_19_20 1
x_24_19_21 0
x_24_20_21 0
x_25_1_2 0
x_25_1_3 1
x_25_1_18 1
x_25_1_19 1
x_25_1_20 1
x_25_2_3 1
x_25_2_18 1
x_25_2_19 1
x_25_2_20 1
x_25_3_18 1
x_25_3_19 1
x_25_3_20 1
x_25_18_19 1
x_25_18_20 1
x_25_19_20 1
x_26_1_2 0
x_26_1_3 1
x_26_1_18 1
x_26_1_19 1
x_26_1_20 1
x_25_1_24 1
x_26_1_24 1
x_25_1_25 1
x_26_1_25 1
x_26_2_3 1
x_26_2_18 1
x_26_2_19 1
x_26_2_20 1
x_25_2_24 1
x_26_2_24 1
x_25_2_25 1
x_26_2_25 1
x_26_3_18 1
x_26_3_19 1
x_26_3_20 1
x_25_3_24 1
x_26_3_24 1
x_25_3_25 1
x_26_3_25 1
x_26_18_19 1
x_26_18_20 1
x_25_18_24 1
x_26_18_24 1
x_25_18_25 1
x_26_18_25 1
x_26_19_20 1
x_25_19_24 1
x_26_19_24 1
x_25_19_25 0
x_26_19_25 0
x_25_20_24 0
x_26_20_24 0
x_25_20_25 0
x_26_20_25 0
x_25_24_25 0
x_26_24_25 0
x_27_1_2 0
x_27_1_3 1
x_27_1_18 1
x_27_1_19 1
x_27_1_20 1
x_27_1_25 1
x_26_1_30 1
x_27_1_30 1
x_26_1_31 1
x_27_1_31 1
x_27_2_3 1
x_27_2_18 1
x_27_2_19 1
x_27_2_20 1
x_27_2_25 1
x_26_2_30 1
x_27_2_30 1
x_26_2_31 1
x_27_2_31 1
x_27_3_18 1
x_27_3_19 1
x_27_3_20 1
x_27_3_25 1
x_26_3_30 1
x_27_3_30 1
x_26_3_31 1
x_27_3_31 1
x_27_18_19 1
x_27_18_20 1
x_27_18_25 1
x_26_18_30 1
x_27_18_30 1
x_26_18_31 1
x_27_18_31 1
x_27_19_20 1
x_27_19_25 0
x_26_19_30 0
x_27_19_30 0
x_26_19_31 1
x_27_19_31 1
x_27_20_25 0
x_26_20_30 0
x_27_20_30 0
x_26_20_31 0
x_27_20_31 0
x_26_25_30 1
x_27_25_30 1
x_26_25_31 1
x_27_25_31 1
x_26_30_31 1
x_27_30_31 1
x_28_1_2 0
x_28_1_3 1
x_28_1_18 1
x_28_1_19 1
x_28_1_20 1
x_28_1_30 1
x_28_2_3 1
x_28_2_18 1
x_28_2_19 1
x_28_2_20 1
x_28_2_30 1
x_28_3_18 1
x_28_3_19 1
x_28_3_20 1
x_28_3_30 1
x_28_18_19 1
x_28_18_20 1
x_28_18_30 1
x_28_19_20 1
x_28_19_30 0
x_28_20_30 0
x_29_1_2 0
x_29_1_3 1
x_29_1_18 1
x_29_1_19 1
x_29_1_20 1
x_29_1_30 1
x_28_1_32 1
x_29_1_32 1
x_29_2_3 1
x_29_2_18 1
x_29_2_19 1
x_29_2_20 1
x_29_2_30 1
x_28_2_32 1
x_29_2_32 1
x_29_3_18 1
x_29_3_19 1
x_29_3_20 1
x_29_3_30 1
x_28_3_32 1
x_29_3_32 1
x_29_18_19 1
x_29_18_20 1
x_29_18_30 1
x_28_18_32 1
x_29_18_32 1
x_29_19_20 1
x_29_19_30 0
x_28_19_32 1
x_29_19_32 1
x_29_20_30 0
x_28_20_32 0
x_29_20_32 0
x_28_30_32 1
x_29_30_32 1
x_30_1_2 0
x_30_1_3 1
x_30_1_18 1
x_30_1_19 1
x_30_1_20 1
x_30_1_30 1
x_30_1_32 1
x_30_2_3 1
x_30_2_18 1
x_30_2_19 1
x_30_2_20 1
x_30_2_30 1
x_30_2_32 1
x_30_3_18 1
x_30_3_19 1
x_30_3_20 1
x_30_3_30 1
x_30_3_32 1
x_30_18_19 1
x_30_18_20 1
x_30_18_30 1
x_30_18_32 1
x_30_19_20 1
x_30_19_30 0
x_30_19_32 1
x_30_20_30 0
x_30_20_32 0
x_30_30_32 1
x_31_1_2 0
x_31_1_3 1
x_31_1_18 1
x_31_1_19 1
x_31_1_20 1
x_31_1_30 1
x_31_2_3 1
x_31_2_18 1
x_31_2_19 1
x_31_2_20 1
x_31_2_30 1
x_31_3_18 1
x_31_3_19 1
x_31_3_20 1
x_31_3_30 1
x_31_18_19 1
x_31_18_20 1
x_31_18_30 1
x_31_19_20 1
x_31_19_30 0
x_31_20_30 0
x_32_1_2 0
x_32_1_3 1
x_32_1_18 1
x_32_1_19 1
x_32_1_30 1
x_32_2_3 1
x_32_2_18 1
x_32_2_19 1
x_32_2_30 1
x_32_3_18 1
x_32_3_19 1
x_32_3_30 1
x_32_18_19 1
x_32_18_30 1
x_32_19_30 0
x_33_1_2 0
x_33_1_3 1
x_33_1_18 1
x_33_1_19 1
x_33_2_3 1
x_33_2_18 1
x_33_2_19 1
x_33_3_18 1
x_33_3_19 1
x_33_18_19 1
x_34_1_2 0
x_34_1_3 1
x_34_2_3 1
x_35_1_2 0
x_35_1_3 1
x_35_2_3 1
x_36_1_2 0
x_36_1_3 1
x_36_2_3 1
x_37_1_2 0
x_37_1_3 1
x_36_1_36 0
x_37_1_36 0
x_37_2_3 1
x_36_2_36 1
x_37_2_36 1
x_36_3_36 0
x_37_3_36 0
x_38_1_2 0
x_38_1_3 1
x_38_1_36 0
x_38_2_3 1
x_38_2_36 1
x_38_3_36 0
x_39_1_2 0
x_39_1_3 1
x_39_2_3 1
x_40_1_2 1
x_40_1_3 1
x_40_2_3 1
x_41_1_2 1
x_41_1_3 1
x_41_2_3 0
x_42_1_2 1
x_42_1_3 1
x_42_2_3 0
x_43_1_2 1
x_43_1_3 1
x_43_2_3 0
x_44_1_2 1
x_45_1_2 1
x_45_1_44 0
x_46_1_44 0
b_0 46
b_1 46
x_0_1_0 0
x_1_1_0 0
b_2 46
x_2_1_0 0
x_1_2_0 1
x_1_2_1 1
x_2_2_0 1
x_2_2_1 1
b_3 45
x_3_1_0 0
x_3_2_0 1
x_3_2_1 1
b_4 45
x_4_1_0 0
x_4_2_0 1
x_4_2_1 1
x_3_3_0 0
x_3_3_1 0
x_3_3_2 0
x_4_3_0 0
x_4_3_1 0
x_4_3_2 0
b_5 45
x_5_1_0 0
x_5_2_0 1
x_5_2_1 1
x_5_3_0 0
x_5_3_1 0
x_5_3_2 0
x_6_0_4 1
b_6 44
x_6_1_0 0
x_6_1_4 1
x_6_2_0 1
x_6_2_1 1
x_6_2_4 1
x_6_3_0 0
x_6_3_1 0
x_6_3_2 0
x_6_3_4 0
x_7_0_5 1
x_7_0_6 1
b_7 43
x_7_1_0 0
x_7_1_5 1
x_7_1_6 1
x_7_2_0 1
x_7_2_1 1
x_7_2_5 1
x_7_2_6 1
x_7_3_0 0
x_7_3_1 0
x_7_3_2 0
x_7_3_5 0
x_7_3_6 0
x_8_0_7 1
b_8 44
x_8_1_0 0
x_8_1_7 1
x_8_2_0 1
x_8_2_1 1
x_8_2_7 1
x_8_3_0 0
x_8_3_1 0
x_8_3_2 0
x_8_3_7 0
x_9_1_8 1
b_9 44
x_9_2_1 1
x_9_2_8 1
x_9_3_1 1
x_9_3_2 0
x_9_3_8 1
b_10 44
x_10_2_1 1
x_10_3_1 1
x_10_3_2 0
x_9_9_1 0
x_9_9_2 0
x_9_9_3 0
x_9_9_8 0
x_10_9_1 0
x_10_9_2 0
x_10_9_3 0
b_11 42
x_11_2_1 1
x_11_3_1 1
x_11_3_2 0
x_11_9_1 0
x_11_9_2 0
x_11_9_3 0
x_10_10_1 0
x_10_10_2 0
x_10_10_3 0
x_10_10_9 1
x_11_10_1 0
x_11_10_2 0
x_11_10_3 0
x_11_10_9 1
x_12_1_13 1
b_12 41
x_12_2_1 1
x_12_2_13 1
x_12_3_1 1
x_12_3_2 0
x_12_3_13 1
x_12_9_1 0
x_12_9_2 0
x_12_9_3 0
x_12_9_13 1
x_12_10_1 1
x_12_10_2 0
x_12_10_3 0
x_12_10_9 1
x_12_10_13 1
x_11_11_1 0
x_11_11_2 0
x_11_11_3 0
x_11_11_9 0
x_11_11_10 0
x_12_11_1 0
x_12_11_2 0
x_12_11_3 0
x_12_11_9 0
x_12_11_10 0
x_12_11_13 1
x_11_12_1 0
x_11_12_2 0
x_11_12_3 0
x_11_12_9 0
x_11_12_10 0
x_11_12_11 0
x_12_12_1 0
x_12_12_2 0
x_12_12_3 0
x_12_12_9 0
x_12_12_10 0
x_12_12_11 0
x_12_12_13 0
x_13_1_16 1
b_13 40
x_13_2_1 1
x_13_2_16 1
x_13_3_1 1
x_13_3_2 0
x_13_3_16 1
x_13_9_1 0
x_13_9_2 0
x_13_9_3 0
x_13_9_16 1
x_13_10_1 1
x_13_10_2 0
x_13_10_3 0
x_13_10_9 1
x_13_10_16 1
x_13_11_1 0
x_13_11_2 0
x_13_11_3 0
x_13_11_9 0
x_13_11_10 0
x_13_11_16 1
x_13_12_1 0
x_13_12_2 0
x_13_12_3 0
x_13_12_9 0
x_13_12_10 0
x_13_12_11 0
x_13_12_15 0
x_13_12_16 1
x_12_14_1 0
x_12_14_2 0
x_12_14_3 0
x_12_14_9 1
x_12_14_10 0
x_12_14_11 1
x_12_14_12 1
x_12_14_13 1
x_13_14_1 0
x_13_14_2 0
x_13_14_3 0
x_13_14_9 1
x_13_14_10 0
x_13_14_11 1
x_13_14_12 1
x_13_14_16 1
b_14 42
x_14_2_1 1
x_14_3_1 1
x_14_3_2 0
x_14_9_1 0
x_14_9_2 0
x_14_9_3 0
x_14_10_1 1
x_14_10_2 0
x_14_10_3 0
x_14_10_9 1
x_14_11_1 0
x_14_11_2 0
x_14_11_3 0
x_14_11_9 0
x_14_11_10 0
x_14_14_1 0
x_14_14_2 0
x_14_14_3 0
x_14_14_9 1
x_14_14_10 0
x_14_14_11 1
x_13_15_1 0
x_13_15_2 0
x_13_15_3 0
x_13_15_9 0
x_13_15_10 0
x_13_15_11 0
x_13_15_12 1
x_13_15_14 0
x_13_15_16 1
x_14_15_1 0
x_14_15_2 0
x_14_15_3 0
x_14_15_9 0
x_14_15_10 0
x_14_15_11 0
x_14_15_14 0
b_15 42
x_15_2_1 1
x_15_3_1 1
x_15_3_2 0
x_15_9_1 0
x_15_9_2 0
x_15_9_3 0
x_15_11_1 0
x_15_11_2 0
x_15_11_3 0
x_15_11_9 0
x_15_15_1 0
x_15_15_2 0
x_15_15_3 0
x_15_15_9 0
x_15_15_11 0
b_16 42
x_16_2_1 1
x_16_3_1 1
x_16_3_2 0
x_16_9_1 0
x_16_9_2 0
x_16_9_3 0
x_16_11_1 0
x_16_11_2 0
x_16_11_3 0
x_16_11_9 0
x_16_15_1 0
x_16_15_2 0
x_16_15_3 0
x_16_15_9 0
x_16_15_11 0
x_17_1_17 1
b_17 43
x_17_2_1 1
x_17_2_17 1
x_17_3_1 1
x_17_3_2 0
x_17_3_17 1
x_17_9_1 0
x_17_9_2 0
x_17_9_3 0
x_17_9_17 0
b_18 43
x_18_2_1 1
x_18_3_1 1
x_18_3_2 0
x_18_9_1 0
x_18_9_2 0
x_18_9_3 0
b_19 42
x_19_2_1 1
x_19_3_1 1
x_19_3_2 0
b_20 42
x_20_2_1 1
x_20_3_1 1
x_20_3_2 0
x_19_18_1 0
x_19_18_2 0
x_19_18_3 0
x_20_18_1 0
x_20_18_2 0
x_20_18_3 0
x_19_19_1 0
x_19_19_2 0
x_19_19_3 0
x_19_19_18 0
x_20_19_1 0
x_20_19_2 0
x_20_19_3 0
x_20_19_18 0
b_21 41
x_21_2_1 1
x_21_3_1 0
x_21_3_2 0
x_21_18_1 0
x_21_18_2 0
x_21_18_3 0
x_21_19_1 0
x_21_19_2 0
x_21_19_3 0
x_21_19_18 0
b_22 41
x_22_2_1 1
x_22_3_1 0
x_22_3_2 0
x_22_18_1 0
x_22_18_2 0
x_22_18_3 0
x_22_19_1 0
x_22_19_2 0
x_22_19_3 0
x_22_19_18 0
x_21_20_1 0
x_21_20_2 0
x_21_20_3 0
x_21_20_18 0
x_21_20_19 0
x_22_20_1 0
x_22_20_2 0
x_22_20_3 0
x_22_20_18 0
x_22_20_19 0
x_23_1_22 1
x_23_1_23 1
b_23 39
x_23_2_1 1
x_23_2_22 1
x_23_2_23 1
x_23_3_1 0
x_23_3_2 0
x_23_3_22 1
x_23_3_23 1
x_23_18_1 0
x_23_18_2 0
x_23_18_3 0
x_23_18_22 1
x_23_18_23 1
x_23_19_1 0
x_23_19_2 0
x_23_19_3 0
x_23_19_18 0
x_23_19_22 1
x_23_19_23 1
x_23_20_1 0
x_23_20_2 0
x_23_20_3 0
x_23_20_18 0
x_23_20_19 0
x_23_20_22 0
x_23_20_23 0
x_22_21_1 0
x_22_21_2 0
x_22_21_3 0
x_22_21_18 0
x_22_21_19 1
x_22_21_20 1
x_23_21_1 0
x_23_21_2 0
x_23_21_3 0
x_23_21_18 0
x_23_21_19 1
x_23_21_20 1
x_23_21_22 1
x_23_21_23 1
b_24 41
x_24_2_1 1
x_24_3_1 0
x_24_3_2 0
x_24_18_1 0
x_24_18_2 0
x_24_18_3 0
x_24_19_1 0
x_24_19_2 0
x_24_19_3 0
x_24_19_18 0
x_24_20_1 0
x_24_20_2 0
x_24_20_3 0
x_24_20_18 0
x_24_20_19 0
x_24_21_1 0
x_24_21_2 0
x_24_21_3 0
x_24_21_18 0
x_24_21_19 1
x_24_21_20 1
x_25_1_26 1
b_25 40
x_25_2_1 1
x_25_2_26 1
x_25_3_1 0
x_25_3_2 0
x_25_3_26 1
x_25_18_1 0
x_25_18_2 0
x_25_18_3 0
x_25_18_26 1
x_25_19_1 0
x_25_19_2 0
x_25_19_3 0
x_25_19_18 0
x_25_19_26 0
x_25_20_1 0
x_25_20_2 0
x_25_20_3 0
x_25_20_18 0
x_25_20_19 0
x_25_20_26 0
x_26_1_27 1
x_26_1_28 1
x_26_1_29 1
b_26 36
x_26_2_1 1
x_26_2_27 1
x_26_2_28 1
x_26_2_29 1
x_26_3_1 0
x_26_3_2 0
x_26_3_27 1
x_26_3_28 1
x_26_3_29 1
x_26_18_1 0
x_26_18_2 0
x_26_18_3 0
x_26_18_27 1
x_26_18_28 1
x_26_18_29 1
x_26_19_1 0
x_26_19_2 0
x_26_19_3 0
x_26_19_18 0
x_26_19_27 1
x_26_19_28 1
x_26_19_29 1
x_26_20_1 0
x_26_20_2 0
x_26_20_3 0
x_26_20_18 0
x_26_20_19 0
x_26_20_27 0
x_26_20_28 0
x_26_20_29 0
x_25_24_1 0
x_25_24_2 0
x_25_24_3 0
x_25_24_18 0
x_25_24_19 0
x_25_24_20 1
x_25_24_26 0
x_26_24_1 0
x_26_24_2 0
x_26_24_3 0
x_26_24_18 0
x_26_24_19 0
x_26_24_20 1
x_26_24_27 1
x_26_24_28 1
x_26_24_29 1
x_26_24_30 0
x_26_24_31 1
x_25_25_1 0
x_25_25_2 0
x_25_25_3 0
x_25_25_18 0
x_25_25_19 1
x_25_25_20 1
x_25_25_24 1
x_25_25_26 1
x_26_25_1 0
x_26_25_2 0
x_26_25_3 0
x_26_25_18 0
x_26_25_19 1
x_26_25_20 1
x_26_25_24 1
x_26_25_27 1
x_26_25_28 1
x_26_25_29 1
b_27 40
x_27_2_1 1
x_27_3_1 0
x_27_3_2 0
x_27_18_1 0
x_27_18_2 0
x_27_18_3 0
x_27_19_1 0
x_27_19_2 0
x_27_19_3 0
x_27_19_18 0
x_27_20_1 0
x_27_20_2 0
x_27_20_3 0
x_27_20_18 0
x_27_20_19 0
x_27_25_1 0
x_27_25_2 0
x_27_25_3 0
x_27_25_18 0
x_27_25_19 1
x_27_25_20 1
x_26_30_1 0
x_26_30_2 0
x_26_30_3 0
x_26_30_18 0
x_26_30_19 1
x_26_30_20 1
x_26_30_24 1
x_26_30_25 0
x_26_30_27 1
x_26_30_28 1
x_26_30_29 1
x_27_30_1 0
x_27_30_2 0
x_27_30_3 0
x_27_30_18 0
x_27_30_19 1
x_27_30_20 1
x_27_30_25 0
x_26_31_1 0
x_26_31_2 0
x_26_31_3 0
x_26_31_18 0
x_26_31_19 0
x_26_31_20 1
x_26_31_24 0
x_26_31_25 0
x_26_31_27 1
x_26_31_28 1
x_26_31_29 1
x_26_31_30 0
x_27_31_1 0
x_27_31_2 0
x_27_31_3 0
x_27_31_18 0
x_27_31_19 0
x_27_31_20 1
x_27_31_25 0
x_27_31_30 0
b_28 40
x_28_2_1 1
x_28_3_1 0
x_28_3_2 0
x_28_18_1 0
x_28_18_2 0
x_28_18_3 0
x_28_19_1 0
x_28_19_2 0
x_28_19_3 0
x_28_19_18 0
x_28_20_1 0
x_28_20_2 0
x_28_20_3 0
x_28_20_18 0
x_28_20_19 0
x_28_30_1 0
x_28_30_2 0
x_28_30_3 0
x_28_30_18 0
x_28_30_19 1
x_28_30_20 1
b_29 40
x_29_2_1 1
x_29_3_1 0
x_29_3_2 0
x_29_18_1 0
x_29_18_2 0
x_29_18_3 0
x_29_19_1 0
x_29_19_2 0
x_29_19_3 0
x_29_19_18 0
x_29_20_1 0
x_29_20_2 0
x_29_20_3 0
x_29_20_18 0
x_29_20_19 0
x_29_30_1 0
x_29_30_2 0
x_29_30_3 0
x_29_30_18 0
x_29_30_19 1
x_29_30_20 1
x_28_32_1 0
x_28_32_2 0
x_28_32_3 0
x_28_32_18 0
x_28_32_19 0
x_28_32_20 1
x_28_32_30 0
x_29_32_1 0
x_29_32_2 0
x_29_32_3 0
x_29_32_18 0
x_29_32_19 0
x_29_32_20 1
x_29_32_30 0
x_30_1_33 1
x_30_1_34 1
x_30_1_35 1
b_30 37
x_30_2_1 1
x_30_2_33 1
x_30_2_34 1
x_30_2_35 1
x_30_3_1 0
x_30_3_2 0
x_30_3_33 1
x_30_3_34 1
x_30_3_35 1
x_30_18_1 0
x_30_18_2 0
x_30_18_3 0
x_30_18_33 1
x_30_18_34 1
x_30_18_35 1
x_30_19_1 0
x_30_19_2 0
x_30_19_3 0
x_30_19_33 1
x_30_19_34 1
x_30_19_35 1
x_30_19_18 0
x_30_20_1 0
x_30_20_2 0
x_30_20_3 0
x_30_20_33 1
x_30_20_34 1
x_30_20_35 1
x_30_20_18 0
x_30_20_19 0
x_30_30_1 0
x_30_30_2 0
x_30_30_3 0
x_30_30_33 1
x_30_30_34 1
x_30_30_35 1
x_30_30_18 0
x_30_30_19 1
x_30_30_20 1
x_30_32_1 0
x_30_32_2 0
x_30_32_3 0
x_30_32_33 1
x_30_32_34 1
x_30_32_35 1
x_30_32_18 0
x_30_32_19 0
x_30_32_20 1
x_30_32_30 0
b_31 41
x_31_2_1 1
x_31_3_1 0
x_31_3_2 0
x_31_18_1 0
x_31_18_2 0
x_31_18_3 0
x_31_19_1 0
x_31_19_2 0
x_31_19_3 0
x_31_19_18 0
x_31_20_1 0
x_31_20_2 0
x_31_20_3 0
x_31_20_18 0
x_31_20_19 0
x_31_30_1 0
x_31_30_2 0
x_31_30_3 0
x_31_30_18 0
x_31_30_19 1
x_31_30_20 1
b_32 42
x_32_2_1 1
x_32_3_1 0
x_32_3_2 0
x_32_18_1 0
x_32_18_2 0
x_32_18_3 0
x_32_19_1 0
x_32_19_2 0
x_32_19_3 0
x_32_19_18 0
x_32_30_1 0
x_32_30_2 0
x_32_30_3 0
x_32_30_18 0
x_32_30_19 1
b_33 43
x_33_2_1 1
x_33_3_1 0
x_33_3_2 0
x_33_18_1 0
x_33_18_2 0
x_33_18_3 0
x_33_19_1 0
x_33_19_2 0
x_33_19_3 0
x_33_19_18 0
b_34 45
x_34_2_1 1
x_34_3_1 0
x_34_3_2 0
b_35 45
x_35_2_1 1
x_35_3_1 0
x_35_3_2 0
x_36_1_37 0
x_36_1_38 0
b_36 45
x_36_2_1 1
x_36_2_37 1
x_36_2_38 1
x_36_3_1 0
x_36_3_2 0
x_36_3_37 0
x_36_3_38 0
x_37_1_39 0
x_37_1_40 0
b_37 45
x_37_2_1 1
x_37_2_39 1
x_37_2_40 1
x_37_3_1 0
x_37_3_2 0
x_37_3_39 0
x_37_3_40 0
x_36_36_1 1
x_36_36_2 0
x_36_36_3 1
x_36_36_37 0
x_36_36_38 0
x_37_36_1 1
x_37_36_2 0
x_37_36_3 1
x_37_36_39 0
x_37_36_40 0
b_38 45
x_38_2_1 1
x_38_3_1 0
x_38_3_2 0
x_38_36_1 1
x_38_36_2 0
x_38_36_3 1
b_39 45
x_39_2_1 1
x_39_3_1 0
x_39_3_2 0
x_40_1_41 0
b_40 45
x_40_2_1 0
x_40_2_41 0
x_40_3_1 0
x_40_3_2 0
x_40_3_41 0
x_41_1_42 0
b_41 45
x_41_2_1 0
x_41_2_42 0
x_41_3_1 0
x_41_3_2 1
x_41_3_42 0
x_42_1_43 0
b_42 45
x_42_2_1 0
x_42_2_43 0
x_42_3_1 0
x_42_3_2 1
x_42_3_43 0
b_43 45
x_43_2_1 0
x_43_3_1 0
x_43_3_2 1
b_44 45
x_44_2_1 0
b_45 45
x_45_2_1 0
x_45_2_44 0
b_46 46
x_45_44_1 1
x_45_44_2 1
x_46_44_1 1
b_47 46
x_47_1_45 0
x_6_4_0 0
x_6_4_1 0
x_6_4_2 0
x_6_4_3 1
x_7_5_0 0
x_7_6_0 0
x_7_5_1 0
x_7_6_1 0
x_7_5_2 0
x_7_6_2 0
x_7_5_3 1
x_7_6_3 1
x_7_5_6 0
x_7_6_5 1
x_8_7_0 0
x_8_7_1 0
x_8_7_2 0
x_8_7_3 1
x_9_8_1 0
x_9_8_2 0
x_9_8_3 0
x_9_8_9 1
x_12_13_1 0
x_12_13_2 0
x_12_13_3 0
x_12_13_9 0
x_12_13_10 0
x_12_13_11 0
x_12_13_12 1
x_12_13_14 0
x_13_16_1 0
x_13_16_2 0
x_13_16_3 0
x_13_16_9 0
x_13_16_10 0
x_13_16_11 0
x_13_16_12 0
x_13_16_14 0
x_13_16_15 0
x_17_17_1 0
x_17_17_2 0
x_17_17_3 0
x_17_17_9 1
x_23_22_1 0
x_23_23_1 0
x_23_22_2 0
x_23_23_2 0
x_23_22_3 0
x_23_23_3 0
x_23_22_18 0
x_23_23_18 0
x_23_22_19 0
x_23_23_19 0
x_23_22_20 1
x_23_23_20 1
x_23_22_21 0
x_23_23_21 0
x_23_22_23 0
x_23_23_22 1
x_25_26_1 0
x_25_26_2 0
x_25_26_3 0
x_25_26_18 0
x_25_26_19 1
x_25_26_20 1
x_25_26_24 1
x_25_26_25 0
x_26_27_1 0
x_26_28_1 0
x_26_29_1 0
x_26_27_2 0
x_26_28_2 0
x_26_29_2 0
x_26_27_3 0
x_26_28_3 0
x_26_29_3 0
x_26_27_18 0
x_26_28_18 0
x_26_29_18 0
x_26_27_19 0
x_26_28_19 0
x_26_29_19 0
x_26_27_20 1
x_26_28_20 1
x_26_29_20 1
x_26_27_24 0
x_26_28_24 0
x_26_29_24 0
x_26_27_25 0
x_26_28_25 0
x_26_29_25 0
x_26_27_28 0
x_26_28_27 1
x_26_27_29 1
x_26_29_27 0
x_26_27_30 0
x_26_27_31 0
x_26_28_29 1
x_26_29_28 0
x_26_28_30 0
x_26_28_31 0
x_26_29_30 0
x_26_29_31 0
x_30_33_1 0
x_30_34_1 0
x_30_35_1 0
x_30_33_2 0
x_30_34_2 0
x_30_35_2 0
x_30_33_3 0
x_30_34_3 0
x_30_35_3 0
x_30_33_18 0
x_30_34_18 0
x_30_35_18 0
x_30_33_19 0
x_30_34_19 0
x_30_35_19 0
x_30_33_20 0
x_30_34_20 0
x_30_35_20 0
x_30_33_30 0
x_30_34_30 0
x_30_35_30 0
x_30_33_32 0
x_30_34_32 0
x_30_35_32 0
x_30_33_34 1
x_30_34_33 0
x_30_33_35 1
x_30_35_33 0
x_30_34_35 0
x_30_35_34 1
x_36_37_1 1
x_36_38_1 1
x_36_37_2 0
x_36_38_2 0
x_36_37_3 1
x_36_38_3 1
x_36_37_36 1
x_36_38_36 1
x_36_37_38 1
x_36_38_37 0
x_37_39_1 1
x_37_40_1 1
x_37_39_2 0
x_37_40_2 0
x_37_39_3 1
x_37_40_3 1
x_37_39_36 1
x_37_40_36 1
x_37_39_40 1
x_37_40_39 0
x_40_41_1 1
x_40_41_2 1
x_40_41_3 1
x_41_42_1 1
x_41_42_2 1
x_41_42_3 1
x_42_43_1 1
x_42_43_2 1
x_42_43_3 1
x_47_45_1 1
